9867
[0, 24, 25, 26, 4, 27, 28, 51, 52, 30, 29, 7, 6, 5, 31, 32, 56, 57, 35, 36, 37, 38, 15, 16, 14, 39, 40, 41, 18, 17, 42, 19, 20, 21, 22, 45, 44, 43, 60, 61, 62, 63, 64, 86, 85, 65, 88, 87, 89, 112, 111, 110, 134, 157, 158, 135, 136, 159, 182, 160, 133, 90, 113, 114, 137, 66, 67, 91, 68, 59, 81, 82, 83, 84, 58, 55, 79, 78, 54, 53, 76, 77, 99, 100, 101, 102, 103, 80, 104, 128, 106, 107, 108, 109, 130, 131, 132, 154, 155, 156, 179, 178, 202, 201, 200, 176, 175, 174, 173, 177, 105, 125, 124, 122, 123, 146, 147, 148, 126, 149, 150, 151, 152, 153, 127, 129, 172, 171, 170, 193, 192, 191, 190, 194, 195, 196, 220, 219, 242, 243, 266, 267, 291, 292, 314, 315, 316, 317, 295, 296, 297, 320, 319, 318, 342, 343, 344, 341, 364, 365, 366, 389, 388, 411, 410, 387, 409, 386, 408, 412, 390, 367, 363, 362, 385, 340, 339, 338, 337, 336, 359, 360, 384, 361, 382, 383, 381, 404, 405, 428, 429, 427, 426, 448, 425, 424, 423, 422, 446, 445, 467, 444, 443, 466, 465, 489, 490, 491, 515, 492, 493, 494, 495, 518, 517, 540, 516, 539, 519, 520, 521, 522, 523, 524, 525, 526, 527, 528, 505, 549, 548, 503, 504, 480, 479, 501, 502, 500, 499, 477, 513, 514, 537, 538, 561, 562, 563, 564, 541, 542, 566, 544, 545, 546, 547, 569, 570, 571, 572, 573, 550, 574, 551, 568, 567, 565, 543, 560, 536, 535, 534, 533, 532, 555, 554, 553, 552, 531, 530, 529, 556, 557, 559, 558, 512, 468, 469, 442, 441, 439, 462, 485, 486, 510, 487, 488, 511, 508, 507, 506, 509, 463, 464, 461, 460, 484, 483, 438, 416, 415, 414, 437, 440, 447, 470, 471, 472, 473, 474, 496, 497, 498, 449, 450, 451, 452, 475, 476, 453, 454, 455, 456, 457, 458, 481, 482, 478, 401, 406, 407, 430, 431, 432, 433, 434, 435, 436, 459, 413, 403, 402, 358, 335, 321, 294, 293, 313, 290, 268, 245, 222, 246, 247, 271, 249, 250, 273, 272, 274, 251, 252, 229, 228, 227, 205, 204, 203, 180, 181, 206, 183, 275, 298, 270, 269, 248, 224, 223, 226, 225, 265, 289, 288, 287, 264, 241, 244, 218, 217, 240, 239, 238, 197, 198, 221, 199, 216, 215, 214, 213, 235, 236, 237, 212, 169, 168, 167, 144, 166, 165, 164, 187, 188, 211, 189, 186, 185, 208, 209, 210, 232, 231, 230, 253, 255, 233, 234, 257, 258, 259, 260, 261, 262, 263, 285, 286, 282, 283, 284, 305, 306, 329, 328, 304, 327, 307, 330, 331, 308, 309, 310, 311, 312, 333, 334, 332, 355, 356, 357, 354, 353, 377, 378, 379, 380, 281, 256, 279, 278, 277, 301, 302, 303, 300, 324, 323, 322, 345, 346, 347, 348, 349, 350, 373, 374, 375, 396, 395, 418, 417, 397, 398, 421, 420, 419, 399, 376, 400, 372, 371, 393, 392, 391, 368, 369, 370, 394, 351, 352, 325, 326, 299, 280, 254, 276, 207, 163, 162, 161, 184, 139, 138, 145, 121, 120, 119, 118, 143, 142, 141, 140, 117, 94, 93, 92, 70, 69, 46, 116, 115, 98, 97, 96, 95, 74, 75, 10, 9, 8, 33, 34, 12, 11, 13, 3, 2, 1, 23, 47, 48, 49, 71, 72, 73, 50]
